Day	0	Optimize a model with 2643 rows, 33494 columns and 307250 nonzeros
Variable types: 280 continuous, 33214 integer (32514 binary)
Coefficient statistics:
  Matrix range     [1e+00, 2e+02]
  Objective range  [1e+00, 2e+03]
  Bounds range     [1e+00, 1e+02]
  RHS range        [1e+00, 3e+03]
Found heuristic solution: objective 413046
Presolve removed 302 rows and 6899 columns
Presolve time: 1.19s
Presolved: 2341 rows, 26595 columns, 204937 nonzeros
Variable types: 0 continuous, 26595 integer (25920 binary)

Root relaxation: objective 3.341400e+05, 420 iterations, 0.03 seconds

    Nodes    |    Current Node    |     Objective Bounds      |     Work
 Expl Unexpl |  Obj  Depth IntInf | Incumbent    BestBd   Gap | It/Node Time

     0     0 334140.000    0    4 413046.000 334140.000  19.1%     -    1s
H    0     0                    334240.00000 334140.000  0.03%     -    1s
H    0     0                    334190.00000 334140.000  0.01%     -    1s
H    0     0                    334141.00000 334140.000  0.00%     -    1s

Explored 0 nodes (646 simplex iterations) in 1.46 seconds
Thread count was 1 (of 16 available processors)

Solution count 4: 334141 334190 334240 413046 
Pool objective bound 334140

Optimal solution found (tolerance 1.00e-04)
Best objective 3.341410000000e+05, best bound 3.341400000000e+05, gap 0.0003%
	MIPObjVal:	334141.0	runtime:	1.460249900817871	patientsNumber:	123	room Occupancy:	0.23383084577114427	OR Occupancy:	0.2730638691761802
roomCost:	2770.0	genderPolicy:	0.0	transferCost:	0.0	delayCost:	0.0	overCrowdRisk:	1.0	overtime:	0.0	idleRoom:	48320.0	idleOR:	283050.0	eRoomIdle:	0.0	eORIdle:	0.0	roomU:	0.0	orU:	0.0
Day	1	Optimize a model with 2553 rows, 29104 columns and 235375 nonzeros
Variable types: 270 continuous, 28834 integer (28159 binary)
Coefficient statistics:
  Matrix range     [1e+00, 2e+02]
  Objective range  [1e+00, 2e+03]
  Bounds range     [1e+00, 1e+02]
  RHS range        [1e+00, 3e+03]
Found heuristic solution: objective 371065
Presolve removed 341 rows and 5517 columns
Presolve time: 0.46s
Presolved: 2212 rows, 23587 columns, 164901 nonzeros
Variable types: 0 continuous, 23587 integer (22962 binary)

Root relaxation: objective 3.037700e+05, 384 iterations, 0.02 seconds

    Nodes    |    Current Node    |     Objective Bounds      |     Work
 Expl Unexpl |  Obj  Depth IntInf | Incumbent    BestBd   Gap | It/Node Time

     0     0 303770.000    0    4 371065.000 303770.000  18.1%     -    0s
H    0     0                    303771.00000 303770.000  0.00%     -    0s

Explored 0 nodes (561 simplex iterations) in 0.61 seconds
Thread count was 1 (of 16 available processors)

Solution count 2: 303771 371065 
Pool objective bound 303770

Optimal solution found (tolerance 1.00e-04)
Best objective 3.037710000000e+05, best bound 3.037700000000e+05, gap 0.0003%
	MIPObjVal:	303771.0	runtime:	0.6139028072357178	patientsNumber:	123	room Occupancy:	0.15920398009950248	OR Occupancy:	0.0
roomCost:	2560.0	genderPolicy:	0.0	transferCost:	0.0	delayCost:	0.0	overCrowdRisk:	1.0	overtime:	0.0	idleRoom:	44460.0	idleOR:	256750.0	eRoomIdle:	0.0	eORIdle:	0.0	roomU:	0.0	orU:	0.0
Day	2	Optimize a model with 2474 rows, 34229 columns and 277950 nonzeros
Variable types: 260 continuous, 33969 integer (33319 binary)
Coefficient statistics:
  Matrix range     [1e+00, 2e+02]
  Objective range  [1e+00, 2e+03]
  Bounds range     [1e+00, 1e+02]
  RHS range        [1e+00, 3e+03]
Found heuristic solution: objective 370110
Presolve removed 284 rows and 6231 columns
Presolve time: 0.53s
Presolved: 2190 rows, 27998 columns, 197000 nonzeros
Variable types: 0 continuous, 27998 integer (27375 binary)

Root relaxation: objective 2.931100e+05, 456 iterations, 0.03 seconds

    Nodes    |    Current Node    |     Objective Bounds      |     Work
 Expl Unexpl |  Obj  Depth IntInf | Incumbent    BestBd   Gap | It/Node Time

     0     0 293110.000    0   14 370110.000 293110.000  20.8%     -    0s
H    0     0                    293281.00000 293110.000  0.06%     -    0s
H    0     0                    293207.00000 293110.000  0.03%     -    0s
H    0     0                    293180.00000 293110.000  0.02%     -    0s
H    0     0                    293131.00000 293110.000  0.01%     -    0s

Explored 0 nodes (705 simplex iterations) in 0.85 seconds
Thread count was 1 (of 16 available processors)

Solution count 5: 293131 293180 293207 ... 370110
Pool objective bound 293110

Optimal solution found (tolerance 1.00e-04)
Best objective 2.931310000000e+05, best bound 2.931100000000e+05, gap 0.0072%
	MIPObjVal:	293131.0	runtime:	0.847480058670044	patientsNumber:	134	room Occupancy:	0.13432835820895522	OR Occupancy:	0.0
roomCost:	2650.0	genderPolicy:	0.0	transferCost:	0.0	delayCost:	0.0	overCrowdRisk:	1.0	overtime:	0.0	idleRoom:	40080.0	idleOR:	250400.0	eRoomIdle:	0.0	eORIdle:	0.0	roomU:	0.0	orU:	0.0
Day	3	Optimize a model with 2395 rows, 38097 columns and 309303 nonzeros
Variable types: 250 continuous, 37847 integer (37222 binary)
Coefficient statistics:
  Matrix range     [1e+00, 2e+02]
  Objective range  [1e+00, 2e+03]
  Bounds range     [1e+00, 1e+02]
  RHS range        [1e+00, 3e+03]
Found heuristic solution: objective 370645
Presolve removed 263 rows and 6794 columns
Presolve time: 0.61s
Presolved: 2132 rows, 31303 columns, 221600 nonzeros
Variable types: 0 continuous, 31303 integer (30698 binary)

Root relaxation: objective 2.852810e+05, 458 iterations, 0.03 seconds

    Nodes    |    Current Node    |     Objective Bounds      |     Work
 Expl Unexpl |  Obj  Depth IntInf | Incumbent    BestBd   Gap | It/Node Time

     0     0 285281.000    0   26 370645.000 285281.000  23.0%     -    0s
H    0     0                    285551.00000 285281.000  0.09%     -    0s
H    0     0                    285410.00000 285281.000  0.05%     -    0s
H    0     0                    285370.00000 285281.000  0.03%     -    0s
     0     0 285312.000    0   10 285370.000 285312.000  0.02%     -    1s
     0     0 285312.000    0   20 285370.000 285312.000  0.02%     -    1s
     0     0 285312.000    0   21 285370.000 285312.000  0.02%     -    1s
H    0     0                    285351.00000 285312.000  0.01%     -    1s
     0     0 285332.000    0   11 285351.000 285332.000  0.01%     -    1s

Cutting planes:
  Gomory: 3
  Cover: 14
  Clique: 3
  MIR: 16

Explored 0 nodes (1418 simplex iterations) in 1.26 seconds
Thread count was 1 (of 16 available processors)

Solution count 6: 285351 285370 285370 ... 370645
Pool objective bound 285332

Optimal solution found (tolerance 1.00e-04)
Best objective 2.853510000000e+05, best bound 2.853320000000e+05, gap 0.0067%
	MIPObjVal:	285351.0	runtime:	1.2611219882965088	patientsNumber:	145	room Occupancy:	0.23383084577114427	OR Occupancy:	0.2638074668312249
roomCost:	2670.0	genderPolicy:	0.0	transferCost:	0.0	delayCost:	0.0	overCrowdRisk:	1.0	overtime:	0.0	idleRoom:	35780.0	idleOR:	246900.0	eRoomIdle:	0.0	eORIdle:	0.0	roomU:	0.0	orU:	0.0
Day	4	Optimize a model with 2308 rows, 35228 columns and 287160 nonzeros
Variable types: 240 continuous, 34988 integer (34388 binary)
Coefficient statistics:
  Matrix range     [1e+00, 2e+02]
  Objective range  [1e+00, 2e+03]
  Bounds range     [1e+00, 1e+02]
  RHS range        [1e+00, 3e+03]
Found heuristic solution: objective 323336
Presolve removed 253 rows and 5437 columns
Presolve time: 0.61s
Presolved: 2055 rows, 29791 columns, 211687 nonzeros
Variable types: 0 continuous, 29791 integer (29213 binary)

Root relaxation: objective 2.513920e+05, 587 iterations, 0.04 seconds

    Nodes    |    Current Node    |     Objective Bounds      |     Work
 Expl Unexpl |  Obj  Depth IntInf | Incumbent    BestBd   Gap | It/Node Time

     0     0 251392.000    0   24 323336.000 251392.000  22.3%     -    0s
H    0     0                    252153.00000 251392.000  0.30%     -    0s
H    0     0                    251758.00000 251392.000  0.15%     -    0s
H    0     0                    251493.00000 251392.000  0.04%     -    0s
     0     0 251454.389    0   34 251493.000 251454.389  0.02%     -    1s
     0     0 251454.389    0   22 251493.000 251454.389  0.02%     -    1s
     0     0 251454.389    0   33 251493.000 251454.389  0.02%     -    1s
     0     0 251457.167    0    6 251493.000 251457.167  0.01%     -    1s
     0     0 251457.167    0   10 251493.000 251457.167  0.01%     -    1s
     0     1 251465.167    0    6 251493.000 251465.167  0.01%     -    1s
H    1     1                    251473.00000 251465.167  0.00%  17.0    1s

Explored 2 nodes (1694 simplex iterations) in 1.45 seconds
Thread count was 1 (of 16 available processors)

Solution count 6: 251473 251493 251493 ... 323336
Pool objective bound 251466

Optimal solution found (tolerance 1.00e-04)
Best objective 2.514730000000e+05, best bound 2.514660000000e+05, gap 0.0028%
	MIPObjVal:	251473.0	runtime:	1.4484031200408936	patientsNumber:	148	room Occupancy:	0.24378109452736318	OR Occupancy:	0.18512804689910523
roomCost:	3040.0	genderPolicy:	0.0	transferCost:	0.0	delayCost:	0.0	overCrowdRisk:	3.0	overtime:	0.0	idleRoom:	31280.0	idleOR:	217150.0	eRoomIdle:	0.0	eORIdle:	0.0	roomU:	0.0	orU:	0.0
Day	5	Optimize a model with 2232 rows, 35640 columns and 278141 nonzeros
Variable types: 230 continuous, 35410 integer (34835 binary)
Coefficient statistics:
  Matrix range     [1e+00, 2e+02]
  Objective range  [1e+00, 2e+03]
  Bounds range     [1e+00, 1e+02]
  RHS range        [1e+00, 3e+03]
Found heuristic solution: objective 290867
Presolve removed 242 rows and 5343 columns
Presolve time: 0.60s
Presolved: 1990 rows, 30297 columns, 210572 nonzeros
Variable types: 0 continuous, 30297 integer (29743 binary)

Root relaxation: objective 2.142030e+05, 531 iterations, 0.03 seconds

    Nodes    |    Current Node    |     Objective Bounds      |     Work
 Expl Unexpl |  Obj  Depth IntInf | Incumbent    BestBd   Gap | It/Node Time

     0     0 214203.000    0   22 290867.000 214203.000  26.4%     -    0s
H    0     0                    215368.00000 214203.000  0.54%     -    0s
H    0     0                    214883.00000 214203.000  0.32%     -    0s
H    0     0                    214558.00000 214203.000  0.17%     -    0s
H    0     0                    214389.00000 214203.000  0.09%     -    0s
     0     0 214306.667    0   29 214389.000 214306.667  0.04%     -    1s
     0     0 214306.667    0   20 214389.000 214306.667  0.04%     -    1s
     0     0 214307.000    0   44 214389.000 214307.000  0.04%     -    1s
     0     0 214328.778    0   47 214389.000 214328.778  0.03%     -    1s
     0     0 214353.222    0   20 214389.000 214353.222  0.02%     -    1s
     0     2 214358.222    0   20 214389.000 214358.222  0.01%     -    1s

Cutting planes:
  Gomory: 5
  Cover: 10
  Clique: 4
  MIR: 5
  Flow cover: 3

Explored 6 nodes (2105 simplex iterations) in 1.70 seconds
Thread count was 1 (of 16 available processors)

Solution count 5: 214389 214558 214883 ... 290867
Pool objective bound 214372

Optimal solution found (tolerance 1.00e-04)
Best objective 2.143890000000e+05, best bound 2.143720000000e+05, gap 0.0079%
	MIPObjVal:	214389.0	runtime:	1.7001409530639648	patientsNumber:	162	room Occupancy:	0.3034825870646766	OR Occupancy:	0.28077753779697623
roomCost:	3350.0	genderPolicy:	0.0	transferCost:	0.0	delayCost:	35.0	overCrowdRisk:	4.0	overtime:	0.0	idleRoom:	27100.0	idleOR:	183900.0	eRoomIdle:	0.0	eORIdle:	0.0	roomU:	0.0	orU:	0.0
Day	6	Optimize a model with 2136 rows, 32337 columns and 255859 nonzeros
Variable types: 220 continuous, 32117 integer (31567 binary)
Coefficient statistics:
  Matrix range     [1e+00, 2e+02]
  Objective range  [1e+00, 2e+03]
  Bounds range     [1e+00, 1e+02]
  RHS range        [1e+00, 3e+03]
Found heuristic solution: objective 251855
Presolve removed 234 rows and 5132 columns
Presolve time: 0.47s
Presolved: 1902 rows, 27205 columns, 190061 nonzeros
Variable types: 0 continuous, 27205 integer (26668 binary)

Root relaxation: objective 1.810350e+05, 548 iterations, 0.03 seconds

    Nodes    |    Current Node    |     Objective Bounds      |     Work
 Expl Unexpl |  Obj  Depth IntInf | Incumbent    BestBd   Gap | It/Node Time

     0     0 181035.000    0   22 251855.000 181035.000  28.1%     -    0s
H    0     0                    181870.00000 181035.000  0.46%     -    0s
H    0     0                    181432.00000 181035.000  0.22%     -    0s
H    0     0                    181156.00000 181035.000  0.07%     -    0s
     0     0 181115.333    0   31 181156.000 181115.333  0.02%     -    0s
     0     0 181115.333    0   12 181156.000 181115.333  0.02%     -    1s
H    0     0                    181141.00000 181115.333  0.01%     -    1s
     0     0 181115.333    0   44 181141.000 181115.333  0.01%     -    1s
     0     0 181121.333    0   27 181141.000 181121.333  0.01%     -    1s
*    0     0               0    181122.00000 181122.000  0.00%     -    1s

Cutting planes:
  Gomory: 2
  Cover: 9
  Clique: 3
  MIR: 10

Explored 0 nodes (1351 simplex iterations) in 1.13 seconds
Thread count was 1 (of 16 available processors)

Solution count 7: 181122 181141 181156 ... 251855
Pool objective bound 181122

Optimal solution found (tolerance 1.00e-04)
Best objective 1.811220000000e+05, best bound 1.811220000000e+05, gap 0.0000%
	MIPObjVal:	181122.0	runtime:	1.130350112915039	patientsNumber:	156	room Occupancy:	0.30845771144278605	OR Occupancy:	0.14038876889848811
roomCost:	3000.0	genderPolicy:	50.0	transferCost:	0.0	delayCost:	35.0	overCrowdRisk:	7.0	overtime:	0.0	idleRoom:	23580.0	idleOR:	154450.0	eRoomIdle:	0.0	eORIdle:	0.0	roomU:	0.0	orU:	0.0
Day	7	Optimize a model with 2051 rows, 30329 columns and 226549 nonzeros
Variable types: 210 continuous, 30119 integer (29594 binary)
Coefficient statistics:
  Matrix range     [1e+00, 2e+02]
  Objective range  [1e+00, 2e+03]
  Bounds range     [1e+00, 1e+02]
  RHS range        [1e+00, 3e+03]
Found heuristic solution: objective 203896
Presolve removed 224 rows and 5205 columns
Presolve time: 0.40s
Presolved: 1827 rows, 25124 columns, 166102 nonzeros
Variable types: 0 continuous, 25124 integer (24611 binary)

Root relaxation: objective 1.385160e+05, 556 iterations, 0.03 seconds

    Nodes    |    Current Node    |     Objective Bounds      |     Work
 Expl Unexpl |  Obj  Depth IntInf | Incumbent    BestBd   Gap | It/Node Time

     0     0 138516.000    0   14 203896.000 138516.000  32.1%     -    0s
H    0     0                    138689.00000 138516.000  0.12%     -    0s
H    0     0                    138687.00000 138516.000  0.12%     -    0s
H    0     0                    138682.00000 138516.000  0.12%     -    0s
H    0     0                    138587.00000 138516.000  0.05%     -    0s
     0     0 138570.333    0   10 138587.000 138570.333  0.01%     -    0s
     0     0 138570.333    0    4 138587.000 138570.333  0.01%     -    0s
     0     0 138580.333    0   12 138587.000 138580.333  0.00%     -    0s

Cutting planes:
  Gomory: 1
  Cover: 2
  Clique: 8
  MIR: 3

Explored 0 nodes (1293 simplex iterations) in 0.90 seconds
Thread count was 1 (of 16 available processors)

Solution count 6: 138587 138682 138682 ... 203896
Pool objective bound 138581

Optimal solution found (tolerance 1.00e-04)
Best objective 1.385870000000e+05, best bound 1.385810000000e+05, gap 0.0043%
	MIPObjVal:	138587.0	runtime:	0.9026758670806885	patientsNumber:	161	room Occupancy:	0.36318407960199006	OR Occupancy:	0.4103671706263499
roomCost:	2920.0	genderPolicy:	0.0	transferCost:	0.0	delayCost:	140.0	overCrowdRisk:	7.0	overtime:	0.0	idleRoom:	19920.0	idleOR:	115600.0	eRoomIdle:	0.0	eORIdle:	0.0	roomU:	0.0	orU:	0.0
Day	8	Optimize a model with 1958 rows, 27210 columns and 185635 nonzeros
Variable types: 200 continuous, 27010 integer (26510 binary)
Coefficient statistics:
  Matrix range     [1e+00, 2e+02]
  Objective range  [1e+00, 2e+03]
  Bounds range     [1e+00, 1e+02]
  RHS range        [1e+00, 3e+03]
Found heuristic solution: objective 171906
Presolve removed 252 rows and 4503 columns
Presolve time: 0.33s
Presolved: 1706 rows, 22707 columns, 139838 nonzeros
Variable types: 0 continuous, 22707 integer (22238 binary)

Root relaxation: objective 1.091470e+05, 528 iterations, 0.02 seconds

    Nodes    |    Current Node    |     Objective Bounds      |     Work
 Expl Unexpl |  Obj  Depth IntInf | Incumbent    BestBd   Gap | It/Node Time

     0     0 109147.000    0   34 171906.000 109147.000  36.5%     -    0s
H    0     0                    109914.00000 109147.000  0.70%     -    0s
H    0     0                    109558.00000 109147.000  0.38%     -    0s
H    0     0                    109238.00000 109147.000  0.08%     -    0s
     0     0 109209.667    0   10 109238.000 109209.667  0.03%     -    0s
     0     0 109209.667    0   20 109238.000 109209.667  0.03%     -    0s
     0     0 109226.333    0   19 109238.000 109226.333  0.01%     -    0s
     0     1 109228.000    0   18 109238.000 109228.000  0.01%     -    0s

Cutting planes:
  Gomory: 1
  Cover: 7
  Clique: 16
  MIR: 7

Explored 1 nodes (1516 simplex iterations) in 0.86 seconds
Thread count was 1 (of 16 available processors)

Solution count 5: 109238 109238 109558 ... 171906
Pool objective bound 109228

Optimal solution found (tolerance 1.00e-04)
Best objective 1.092380000000e+05, best bound 1.092280000000e+05, gap 0.0092%
	MIPObjVal:	109238.0	runtime:	0.8653008937835693	patientsNumber:	158	room Occupancy:	0.25870646766169153	OR Occupancy:	0.0
roomCost:	2960.0	genderPolicy:	0.0	transferCost:	0.0	delayCost:	85.0	overCrowdRisk:	8.0	overtime:	45.0	idleRoom:	16640.0	idleOR:	89500.0	eRoomIdle:	0.0	eORIdle:	0.0	roomU:	0.0	orU:	0.0
Day	9	Optimize a model with 1890 rows, 35401 columns and 237895 nonzeros
Variable types: 190 continuous, 35211 integer (34736 binary)
Coefficient statistics:
  Matrix range     [1e+00, 2e+02]
  Objective range  [1e+00, 2e+03]
  Bounds range     [1e+00, 1e+02]
  RHS range        [1e+00, 3e+03]
Found heuristic solution: objective 172573
Presolve removed 197 rows and 6192 columns
Presolve time: 0.44s
Presolved: 1693 rows, 29209 columns, 178693 nonzeros
Found heuristic solution: objective 97267.000000
Variable types: 0 continuous, 29209 integer (28744 binary)

Root relaxation: objective 9.289035e+04, 626 iterations, 0.03 seconds

    Nodes    |    Current Node    |     Objective Bounds      |     Work
 Expl Unexpl |  Obj  Depth IntInf | Incumbent    BestBd   Gap | It/Node Time

     0     0 92890.3514    0   26 97267.0000 92890.3514  4.50%     -    0s
H    0     0                    93432.000000 92890.3514  0.58%     -    0s
H    0     0                    93317.000000 92890.3514  0.46%     -    0s
H    0     0                    93128.000000 92890.3514  0.26%     -    0s
     0     0 93081.3810    0   46 93128.0000 93081.3810  0.05%     -    0s
     0     0 93081.3810    0   18 93128.0000 93081.3810  0.05%     -    1s
     0     0 93101.3200    0   64 93128.0000 93101.3200  0.03%     -    1s
     0     0 93109.1333    0   65 93128.0000 93109.1333  0.02%     -    1s
     0     0 93113.0000    0   23 93128.0000 93113.0000  0.02%     -    1s
H    0     0                    93124.000000 93113.0000  0.01%     -    1s
     0     1 93113.3333    0   22 93124.0000 93113.3333  0.01%     -    1s
H    1     1                    93118.000000 93113.3333  0.01%  93.0    1s

Cutting planes:
  Gomory: 7
  Cover: 12
  Clique: 19
  MIR: 18

Explored 1 nodes (2385 simplex iterations) in 2.05 seconds
Thread count was 1 (of 16 available processors)

Solution count 8: 93118 93124 93128 ... 172443
Pool objective bound 93118

Optimal solution found (tolerance 1.00e-04)
Best objective 9.311800000000e+04, best bound 9.311800000000e+04, gap 0.0000%
	MIPObjVal:	93118.0	runtime:	2.052537202835083	patientsNumber:	180	room Occupancy:	0.1890547263681592	OR Occupancy:	0.0
roomCost:	3740.0	genderPolicy:	50.0	transferCost:	0.0	delayCost:	135.0	overCrowdRisk:	8.0	overtime:	45.0	idleRoom:	12440.0	idleOR:	76700.0	eRoomIdle:	0.0	eORIdle:	0.0	roomU:	0.0	orU:	0.0
Day	10	Optimize a model with 1805 rows, 38855 columns and 257780 nonzeros
Variable types: 180 continuous, 38675 integer (38225 binary)
Coefficient statistics:
  Matrix range     [1e+00, 2e+02]
  Objective range  [1e+00, 2e+03]
  Bounds range     [1e+00, 1e+02]
  RHS range        [1e+00, 3e+03]
Found heuristic solution: objective 166280
Presolve removed 182 rows and 6764 columns
Presolve time: 0.45s
Presolved: 1623 rows, 32091 columns, 193037 nonzeros
Variable types: 0 continuous, 32091 integer (31649 binary)

Root relaxation: objective 8.612521e+04, 662 iterations, 0.04 seconds

    Nodes    |    Current Node    |     Objective Bounds      |     Work
 Expl Unexpl |  Obj  Depth IntInf | Incumbent    BestBd   Gap | It/Node Time

     0     0 86125.2085    0   28 166280.000 86125.2085  48.2%     -    0s
H    0     0                    87470.000000 86125.2085  1.54%     -    0s
H    0     0                    87402.000000 86125.2085  1.46%     -    0s
H    0     0                    87271.000000 86125.2085  1.31%     -    0s
     0     0 87231.5714    0   66 87271.0000 87231.5714  0.05%     -    0s
     0     0 87241.0000    0   67 87271.0000 87241.0000  0.03%     -    1s
     0     0 87250.3333    0   61 87271.0000 87250.3333  0.02%     -    1s
     0     0 87250.3333    0   34 87271.0000 87250.3333  0.02%     -    1s
     0     0 87261.6111    0   44 87271.0000 87261.6111  0.01%     -    1s
     0     0 87270.0000    0    1 87271.0000 87270.0000  0.00%     -    1s

Cutting planes:
  Gomory: 2
  Cover: 10
  Clique: 11
  MIR: 3
  GUB cover: 1

Explored 0 nodes (1747 simplex iterations) in 1.30 seconds
Thread count was 1 (of 16 available processors)

Solution count 4: 87271 87402 87470 166280 
Pool objective bound 87270

Optimal solution found (tolerance 1.00e-04)
Best objective 8.727100000000e+04, best bound 8.727000000000e+04, gap 0.0011%
	MIPObjVal:	87271.0	runtime:	1.3044719696044922	patientsNumber:	185	room Occupancy:	0.34328358208955223	OR Occupancy:	0.33323048441838937
roomCost:	3870.0	genderPolicy:	0.0	transferCost:	0.0	delayCost:	235.0	overCrowdRisk:	11.0	overtime:	45.0	idleRoom:	8760.0	idleOR:	74350.0	eRoomIdle:	0.0	eORIdle:	0.0	roomU:	0.0	orU:	0.0
Day	11	Optimize a model with 1713 rows, 31396 columns and 188078 nonzeros
Variable types: 170 continuous, 31226 integer (30801 binary)
Coefficient statistics:
  Matrix range     [1e+00, 2e+02]
  Objective range  [1e+00, 2e+03]
  Bounds range     [1e+00, 1e+02]
  RHS range        [1e+00, 3e+03]
Found heuristic solution: objective 124626
Presolve removed 176 rows and 5332 columns
Presolve time: 0.32s
Presolved: 1537 rows, 26064 columns, 142107 nonzeros
Variable types: 0 continuous, 26064 integer (25652 binary)

Root relaxation: objective 5.781876e+04, 585 iterations, 0.03 seconds

    Nodes    |    Current Node    |     Objective Bounds      |     Work
 Expl Unexpl |  Obj  Depth IntInf | Incumbent    BestBd   Gap | It/Node Time

     0     0 57818.7568    0   33 124626.000 57818.7568  53.6%     -    0s
H    0     0                    59181.000000 57818.7568  2.30%     -    0s
H    0     0                    59117.000000 57818.7568  2.20%     -    0s
H    0     0                    58966.000000 57818.7568  1.95%     -    0s
     0     0 58907.4962    0   68 58966.0000 58907.4962  0.10%     -    0s
     0     0 58926.0222    0   58 58966.0000 58926.0222  0.07%     -    0s
     0     0 58948.2667    0   38 58966.0000 58948.2667  0.03%     -    0s
     0     0 58948.2667    0   20 58966.0000 58948.2667  0.03%     -    1s
     0     0 58948.2667    0   42 58966.0000 58948.2667  0.03%     -    1s
     0     0 58950.8519    0   38 58966.0000 58950.8519  0.03%     -    1s
     0     0 58958.6667    0   12 58966.0000 58958.6667  0.01%     -    1s
     0     1 58961.0000    0   12 58966.0000 58961.0000  0.01%     -    1s

Cutting planes:
  Gomory: 3
  Cover: 9
  Clique: 8
  MIR: 12

Explored 1 nodes (1768 simplex iterations) in 1.06 seconds
Thread count was 1 (of 16 available processors)

Solution count 4: 58966 59117 59181 124626 
Pool objective bound 58961

Optimal solution found (tolerance 1.00e-04)
Best objective 5.896600000000e+04, best bound 5.896100000000e+04, gap 0.0085%
	MIPObjVal:	58966.0	runtime:	1.0560119152069092	patientsNumber:	183	room Occupancy:	0.4626865671641791	OR Occupancy:	0.46436285097192226
roomCost:	3760.0	genderPolicy:	0.0	transferCost:	0.0	delayCost:	245.0	overCrowdRisk:	6.0	overtime:	45.0	idleRoom:	5660.0	idleOR:	49250.0	eRoomIdle:	0.0	eORIdle:	0.0	roomU:	0.0	orU:	0.0
Day	12	Optimize a model with 1622 rows, 27328 columns and 147653 nonzeros
Variable types: 160 continuous, 27168 integer (26768 binary)
Coefficient statistics:
  Matrix range     [1e+00, 2e+02]
  Objective range  [1e+00, 2e+03]
  Bounds range     [1e+00, 1e+02]
  RHS range        [1e+00, 3e+03]
Found heuristic solution: objective 86121
Presolve removed 159 rows and 5199 columns
Presolve time: 0.24s
Presolved: 1463 rows, 22129 columns, 111295 nonzeros
Variable types: 0 continuous, 22129 integer (21735 binary)

Root relaxation: objective 3.259031e+04, 551 iterations, 0.03 seconds

    Nodes    |    Current Node    |     Objective Bounds      |     Work
 Expl Unexpl |  Obj  Depth IntInf | Incumbent    BestBd   Gap | It/Node Time

     0     0 32590.3050    0   30 86121.0000 32590.3050  62.2%     -    0s
H    0     0                    33952.000000 32590.3050  4.01%     -    0s
H    0     0                    33835.000000 32590.3050  3.68%     -    0s
H    0     0                    33681.000000 32590.3050  3.24%     -    0s
     0     0 33657.6667    0   40 33681.0000 33657.6667  0.07%     -    0s
     0     0 33668.5556    0   49 33681.0000 33668.5556  0.04%     -    0s
     0     0 33672.6667    0   10 33681.0000 33672.6667  0.02%     -    0s
     0     0 33672.6667    0   11 33681.0000 33672.6667  0.02%     -    0s
H    0     0                    33680.000000 33672.6667  0.02%     -    0s
     0     0     cutoff    0      33680.0000 33680.0000  0.00%     -    0s

Cutting planes:
  Gomory: 1
  Cover: 2
  Clique: 6
  MIR: 4
  Zero half: 1

Explored 0 nodes (1249 simplex iterations) in 0.76 seconds
Thread count was 1 (of 16 available processors)

Solution count 6: 33680 33681 33701 ... 86121
Pool objective bound 33680

Optimal solution found (tolerance 1.00e-04)
Best objective 3.368000000000e+04, best bound 3.368000000000e+04, gap 0.0000%
	MIPObjVal:	33680.0	runtime:	0.7570979595184326	patientsNumber:	182	room Occupancy:	0.572139303482587	OR Occupancy:	0.3502005553841407
roomCost:	2900.0	genderPolicy:	0.0	transferCost:	0.0	delayCost:	340.0	overCrowdRisk:	5.0	overtime:	45.0	idleRoom:	3240.0	idleOR:	27150.0	eRoomIdle:	0.0	eORIdle:	0.0	roomU:	0.0	orU:	0.0
Day	13	Optimize a model with 1516 rows, 20975 columns and 99340 nonzeros
Variable types: 150 continuous, 20825 integer (20450 binary)
Coefficient statistics:
  Matrix range     [1e+00, 2e+02]
  Objective range  [1e+00, 2e+03]
  Bounds range     [1e+00, 1e+02]
  RHS range        [1e+00, 3e+03]
Found heuristic solution: objective 40710
Presolve removed 235 rows and 8604 columns
Presolve time: 0.28s
Presolved: 1281 rows, 12371 columns, 50533 nonzeros
Variable types: 0 continuous, 12371 integer (12037 binary)

Root relaxation: objective 6.459516e+03, 416 iterations, 0.02 seconds

    Nodes    |    Current Node    |     Objective Bounds      |     Work
 Expl Unexpl |  Obj  Depth IntInf | Incumbent    BestBd   Gap | It/Node Time

     0     0 6459.51583    0   21 40710.0000 6459.51583  84.1%     -    0s
H    0     0                    7816.0000000 6459.51583  17.4%     -    0s
H    0     0                    7511.0000000 6459.51583  14.0%     -    0s
H    0     0                    7502.0000000 6459.51583  13.9%     -    0s
     0     0 7500.00000    0    4 7502.00000 7500.00000  0.03%     -    0s
     0     0     cutoff    0      7502.00000 7501.00750  0.01%     -    0s

Cutting planes:
  Gomory: 7
  Cover: 9
  Clique: 13
  MIR: 10
  GUB cover: 1

Explored 0 nodes (598 simplex iterations) in 0.45 seconds
Thread count was 1 (of 16 available processors)

Solution count 4: 7502 7511 7816 40710 
Pool objective bound 7502

Optimal solution found (tolerance 1.00e-04)
Best objective 7.502000000000e+03, best bound 7.502000000000e+03, gap 0.0000%
	MIPObjVal:	7502.0	runtime:	0.4487621784210205	patientsNumber:	166	room Occupancy:	0.6467661691542289	OR Occupancy:	0.880900956494909
roomCost:	1790.0	genderPolicy:	0.0	transferCost:	0.0	delayCost:	390.0	overCrowdRisk:	7.0	overtime:	45.0	idleRoom:	1420.0	idleOR:	3850.0	eRoomIdle:	0.0	eORIdle:	0.0	roomU:	0.0	orU:	0.0
Violations:	0	Total ObjVal:	30094	Runtime:	0.0	Room occupancy ratio:	0.45682535	OR occupancy ratio:	0.35833335
The dynamic result in	./Results/FS2LowO/or_pas_dept2_short02_sol0.xml	violations:	0	total ObjVal:	30094	runtime:	22.75	average_patient_number:	157
